0 81 
1 83 
2 84 
3 85 
4 85 
5 82 
6 79 
7 82 
8 78 
9 75 
10 76 
11 79 
12 73 
13 72 
14 71 
15 68 
16 66 
17 64 
18 64 
19 62 
20 59 
21 56 
22 55 
23 49 
24 49 
25 47 
26 46 
27 42 
28 40 
29 40 
30 39 
31 36 
32 37 
33 33 
34 32 
35 30 
36 30 
37 31 
38 29 
39 27 
40 25 
41 24 
42 21 
43 18 
44 18 
45 16 
46 16 
47 16 
48 15 
49 12 
50 10 
51 8 
52 6 
53 6 
54 7 
55 4 
56 2 
57 2 
58 3 
59 2 
60 1 
61 0 
62 0 

